% Problem from Gecode/examples/minesweeper.cc  problem 0
r = 6;
c = 6;
game = array2d(1..r, 1..c, [
    X,X,2,X,3,X,
    2,X,X,X,X,X,
    X,X,2,4,X,3,
    1,X,3,4,X,X,
    X,X,X,X,X,3,
    X,3,X,3,X,X,
    ]);
